%PAL NPROCS 8 END
%MAXCORE 4000
! CCSD(T)-F12/RI cc-pVDZ-F12 cc-pVDZ-F12-CABS cc-pVTZ/c

*xyzfile 0 2 freq.xyz
