%PAL NPROCS 8 END
%MAXCORE 4000
! M062X def2-TZVPP def2-TZVPP/c DEFGRID3 TightSCF SlowConv TightOpt Opt Freq

%geom
 Recalc_Hess 5
 MaxIter 500
end

*xyzfile 0 2 irc_IRC_F.xyz

