%base "opt"
! XTB
! OPT

*xyzfile 0 2 inp.xyz
