%PAL NPROCS 8 END
%MAXCORE 4000
%base "freq"
! M062X def2-TZVPP def2-TZVPP/c DEFGRID3 TightSCF SlowConv Opt NumFreq

%geom
 MaxIter 500
end

*xyzfile 0 2 opt.xyz

